50
120
100
99
98
98
95
93
92
89
80
80
78
77
77
73
72
71
71
71
70
70
67
66
66
65
64
60
59
53
50
48
48
47
47
45
39
38
37
33
33
28
27
19
15
14
14
12
9
9
9
1
